solution status: optimal solution found
objective value:                                    0
shell_j_$_3                                         1 	(obj:0)
shell_j_$_4                                         1 	(obj:0)
shell_i_$_6                                         1 	(obj:0)
shell_j_$_5                                         1 	(obj:0)
shell_k_$_5                                         1 	(obj:0)
shell_j_$_9                                         1 	(obj:0)
shell_i_$_10                                        1 	(obj:0)
shell_j_$_8                                         1 	(obj:0)
shell_i_$_2                                         1 	(obj:0)
shell_j_$_7                                         1 	(obj:0)
$_6_x                                              -9 	(obj:0)
$_6_y                                               6 	(obj:0)
$_10_x                                             -9 	(obj:0)
$_10_y                                              2 	(obj:0)
$_4_x                                              -1 	(obj:0)
$_4_y                                               9 	(obj:0)
$_4_z                                              -5 	(obj:0)
$_8_y                                               9 	(obj:0)
$_8_z                                              -3 	(obj:0)
$_5_x                                              -1 	(obj:0)
$_5_y                                               9 	(obj:0)
$_5_z                                              -9 	(obj:0)
$_2_x                                              -9 	(obj:0)
$_2_y                                               3 	(obj:0)
$_2_z                                              -1 	(obj:0)
$_3_x                                              -6 	(obj:0)
$_3_y                                               9 	(obj:0)
$_3_z                                              -1 	(obj:0)
$_7_x                                              -1 	(obj:0)
$_7_y                                               9 	(obj:0)
$_7_z                                              -1 	(obj:0)
$_9_y                                               9 	(obj:0)
$_9_z                                              -7 	(obj:0)
